Maximize
obj: 70 x0 + 117 x1 + 101 x2 + 86 x3 + 30 x4 + 29 x5 + 83 x6 + 65 x7 + 61 x8 + 56 x9 + 81 x10 + 62 x11 + 59 x12 + 33 x13 + 87 x14 + 81 x15 + 31 x16 + 32 x17 + 87 x18 + 54 x19 + 53 x20 + 44 x21 + 45 x22 + 35 x23 + 112 x24 + 78 x25 + 53 x26 + 49 x27 + 47 x28 + 140 x29 + 47 x30 + 69 x31 + 69 x32 + 39 x33 + 62 x34 + 28 x35 + 54 x36 + 83 x37 + 212 x38 + 105 x39
Subject To
c1: x0 + x1 + x2 + x3 + x4 + x5 + x6 + x7 + x8 + x9 + x10 + x11 + x12 + x13 + x14 + x15 + x16 + x17 + x18 + x19 + x20 + x21 + x22 + x23 + x24 + x25 + x26 + x27 + x28 + x29 + x30 + x31 + x32 + x33 + x34 + x35 + x36 + x37 + x38 + x39 = 18
c2: x5 + x6 + x8 + x9 + x13 + x15 + x16 + x17 + x18 + x19 + x20 + x21 + x23 + x27 + x30 + x31 + x32 + x33 + x34 + x35 + x36 + x37 + x38 >= 9
c3: x5 + x6 + x8 + x9 + x13 + x15 + x16 + x17 + x18 + x19 + x20 + x21 + x23 + x27 + x30 + x31 + x32 + x33 + x34 + x35 + x36 + x37 + x38 <= 40
c4: x0 + x1 + x2 + x3 + x4 + x7 + x10 + x11 + x12 + x14 + x22 + x24 + x25 + x26 + x28 + x29 + x39 >= 9
c5: x0 + x1 + x2 + x3 + x4 + x7 + x10 + x11 + x12 + x14 + x22 + x24 + x25 + x26 + x28 + x29 + x39 <= 40
c6: x2 + x8 + x9 + x12 + x15 + x19 >= 4
c7: x2 + x8 + x9 + x12 + x15 + x19 <= 40
c8: x0 + x1 + x4 + x5 + x7 + x10 + x11 + x13 + x14 + x17 + x18 + x20 + x21 + x22 + x25 + x27 + x28 + x29 + x32 + x33 + x35 + x37 + x39 >= 8
c9: x0 + x1 + x4 + x5 + x7 + x10 + x11 + x13 + x14 + x17 + x18 + x20 + x21 + x22 + x25 + x27 + x28 + x29 + x32 + x33 + x35 + x37 + x39 <= 40
c10: x3 + x6 + x16 + x23 + x24 + x26 + x30 + x31 + x34 + x36 + x38 >= 4
c11: x3 + x6 + x16 + x23 + x24 + x26 + x30 + x31 + x34 + x36 + x38 <= 40
c12: x0 + x2 + x3 + x4 + x5 + x6 + x7 + x8 + x9 + x11 + x12 + x13 + x16 + x17 + x18 + x19 + x20 + x21 + x22 + x23 + x24 + x25 + x26 + x28 + x29 + x30 + x31 + x32 + x33 + x34 + x35 + x36 + x37 + x39 >= 10
c13: x0 + x2 + x3 + x4 + x5 + x6 + x7 + x8 + x9 + x11 + x12 + x13 + x16 + x17 + x18 + x19 + x20 + x21 + x22 + x23 + x24 + x25 + x26 + x28 + x29 + x30 + x31 + x32 + x33 + x34 + x35 + x36 + x37 + x39 <= 40
c14: x1 + x10 + x14 + x15 + x27 + x38 >= 5
c15: x1 + x10 + x14 + x15 + x27 + x38 <= 40
Binary
x0
x1
x2
x3
x4
x5
x6
x7
x8
x9
x10
x11
x12
x13
x14
x15
x16
x17
x18
x19
x20
x21
x22
x23
x24
x25
x26
x27
x28
x29
x30
x31
x32
x33
x34
x35
x36
x37
x38
x39
End
